c FILE /home/rafael/Documents/HappySet/MIHS/inputs/happygen/output/graph_scale_free_k5_p0.5_v50_20241127_082450.txt
c SOURCE This is a scale-free graph formed for the happy graph colouring problem.
c DESCRIPTION It was generated using the problem generator of Rhyd Lewis
c
c GRAPH STATS
c Seed                             = -233572265
c Number of Nodes                  = 50
c Number of colours k              = 5
c Number of pre-assignments        = 25
c Number of links per new node     = 5
c Density                          = 0.191837
c 
c The degrees of nodes 1 to 50, respectively, are as follows 
c [23, 23, 21, 21, 18, 18, 17, 16, 16, 15, 15, 14, 14, 12, 10, 10, 9, 8, 8, 8, 8, 7, 7, 7, 7, 7, 
c  7, 7, 6, 6, 6, 6, 6, 6, 6, 5, 5, 5, 5, 5, 5, 5, 5, 5, 5, 5, 5, 5, 5, 5] 
c  
p edge 50 235 5
e 1 2
e 1 3
e 1 4
e 1 5
e 1 6
e 1 8
e 1 10
e 1 12
e 1 13
e 1 17
e 1 20
e 1 24
e 1 26
e 1 27
e 1 28
e 1 30
e 1 31
e 1 36
e 1 41
e 1 42
e 1 44
e 1 49
e 1 50
e 2 3
e 2 4
e 2 5
e 2 6
e 2 8
e 2 9
e 2 11
e 2 12
e 2 13
e 2 14
e 2 15
e 2 19
e 2 23
e 2 26
e 2 27
e 2 29
e 2 31
e 2 36
e 2 37
e 2 38
e 2 44
e 2 50
e 3 4
e 3 5
e 3 6
e 3 7
e 3 8
e 3 9
e 3 10
e 3 11
e 3 12
e 3 16
e 3 17
e 3 24
e 3 30
e 3 32
e 3 34
e 3 38
e 3 40
e 3 41
e 3 43
e 4 5
e 4 7
e 4 8
e 4 9
e 4 10
e 4 13
e 4 15
e 4 21
e 4 22
e 4 27
e 4 28
e 4 29
e 4 30
e 4 31
e 4 34
e 4 35
e 4 37
e 4 46
e 5 6
e 5 8
e 5 9
e 5 10
e 5 11
e 5 20
e 5 30
e 5 32
e 5 33
e 5 39
e 5 40
e 5 44
e 5 47
e 5 50
e 6 7
e 6 10
e 6 13
e 6 14
e 6 15
e 6 18
e 6 29
e 6 33
e 6 36
e 6 38
e 6 41
e 6 43
e 6 45
e 6 49
e 7 8
e 7 12
e 7 14
e 7 15
e 7 16
e 7 18
e 7 20
e 7 23
e 7 25
e 7 27
e 7 32
e 7 33
e 7 40
e 7 45
e 8 10
e 8 11
e 8 12
e 8 13
e 8 17
e 8 18
e 8 19
e 8 23
e 8 29
e 8 47
e 9 10
e 9 14
e 9 15
e 9 16
e 9 21
e 9 25
e 9 35
e 9 39
e 9 41
e 9 45
e 9 49
e 9 50
e 10 11
e 10 18
e 10 20
e 10 21
e 10 22
e 10 37
e 10 46
e 10 49
e 11 12
e 11 19
e 11 22
e 11 29
e 11 31
e 11 34
e 11 36
e 11 45
e 11 46
e 11 47
e 12 14
e 12 22
e 12 25
e 12 31
e 12 32
e 12 33
e 12 34
e 12 39
e 13 16
e 13 19
e 13 26
e 13 33
e 13 34
e 13 35
e 13 36
e 13 37
e 13 47
e 14 16
e 14 17
e 14 18
e 14 24
e 14 25
e 14 26
e 14 39
e 15 19
e 15 23
e 15 30
e 15 37
e 15 49
e 16 21
e 16 22
e 16 25
e 16 35
e 16 40
e 17 18
e 17 20
e 17 21
e 17 28
e 17 44
e 18 28
e 18 39
e 19 23
e 19 42
e 19 46
e 20 42
e 20 46
e 20 50
e 21 26
e 21 32
e 21 48
e 22 24
e 22 42
e 23 27
e 23 38
e 24 31
e 24 38
e 24 43
e 25 40
e 25 43
e 26 41
e 26 48
e 27 28
e 27 48
e 28 43
e 28 45
e 29 44
e 30 48
e 32 42
e 33 48
e 34 35
e 35 47
n 1 1
n 4 1
n 10 1
n 17 1
n 19 1
n 20 1
n 21 1
n 22 1
n 25 2
n 26 1
n 27 1
n 28 1
n 29 1
n 31 1
n 33 2
n 34 1
n 36 1
n 37 1
n 38 5
n 39 3
n 41 1
n 42 1
n 45 1
n 46 1
n 47 4
